NUM_NODES = 200;
NUM_EDGES = 1000;
edges = [|
0, 22|
0, 45|
0, 51|
0, 54|
0, 131|
0, 141|
0, 142|
0, 164|
0, 181|
0, 190|
0, 192|
1, 12|
1, 38|
1, 53|
1, 84|
1, 90|
1, 106|
1, 108|
1, 116|
1, 121|
1, 142|
1, 151|
2, 23|
2, 44|
2, 70|
2, 87|
2, 96|
2, 150|
2, 156|
2, 157|
2, 161|
2, 162|
2, 182|
2, 186|
3, 31|
3, 32|
3, 32|
3, 42|
3, 42|
3, 52|
3, 78|
3, 107|
3, 136|
4, 6|
4, 25|
4, 95|
4, 99|
4, 124|
4, 143|
4, 150|
4, 194|
4, 199|
5, 47|
5, 59|
5, 71|
5, 123|
5, 162|
5, 177|
6, 15|
6, 21|
6, 25|
6, 39|
6, 49|
6, 51|
6, 63|
6, 64|
6, 75|
6, 103|
6, 107|
6, 109|
6, 124|
6, 171|
6, 179|
6, 187|
7, 50|
7, 56|
7, 58|
7, 92|
7, 107|
7, 111|
7, 129|
7, 146|
7, 149|
7, 186|
7, 194|
8, 23|
8, 27|
8, 40|
8, 56|
8, 76|
8, 135|
8, 150|
8, 158|
8, 171|
8, 189|
9, 56|
9, 68|
9, 74|
9, 124|
9, 142|
9, 175|
9, 197|
10, 22|
10, 43|
10, 76|
10, 94|
10, 97|
10, 118|
10, 179|
10, 182|
10, 183|
10, 184|
10, 189|
11, 19|
11, 21|
11, 33|
11, 63|
11, 76|
11, 79|
11, 98|
11, 99|
11, 144|
11, 155|
11, 185|
11, 190|
12, 29|
12, 56|
12, 63|
12, 76|
12, 80|
12, 84|
12, 102|
12, 139|
12, 154|
12, 159|
12, 160|
12, 178|
13, 17|
13, 26|
13, 46|
13, 49|
13, 88|
13, 100|
13, 107|
13, 113|
13, 151|
13, 153|
13, 167|
13, 168|
13, 180|
14, 22|
14, 87|
14, 127|
14, 137|
14, 176|
14, 199|
15, 22|
15, 73|
15, 80|
15, 83|
15, 87|
15, 109|
15, 130|
15, 145|
15, 161|
15, 182|
15, 185|
16, 62|
16, 77|
16, 103|
16, 108|
16, 131|
16, 155|
16, 165|
16, 175|
16, 186|
17, 26|
17, 39|
17, 44|
17, 68|
17, 108|
17, 126|
17, 151|
17, 157|
18, 27|
18, 32|
18, 61|
18, 78|
18, 118|
18, 181|
18, 182|
18, 194|
19, 114|
19, 169|
20, 26|
20, 36|
20, 56|
20, 87|
20, 95|
20, 103|
20, 103|
20, 109|
20, 131|
20, 135|
20, 141|
20, 153|
20, 195|
21, 39|
21, 44|
21, 70|
21, 77|
21, 77|
21, 78|
21, 113|
21, 145|
21, 172|
21, 178|
21, 178|
22, 29|
22, 113|
22, 120|
22, 144|
22, 168|
22, 183|
22, 184|
22, 184|
22, 185|
23, 24|
23, 47|
23, 55|
23, 57|
23, 71|
23, 81|
23, 90|
23, 106|
23, 116|
23, 125|
23, 133|
23, 134|
23, 147|
23, 158|
23, 174|
23, 175|
23, 188|
23, 197|
24, 45|
24, 60|
24, 119|
24, 124|
24, 164|
24, 174|
24, 181|
24, 192|
25, 30|
25, 31|
25, 127|
25, 133|
25, 171|
26, 77|
26, 152|
26, 178|
27, 48|
27, 52|
27, 122|
27, 166|
27, 175|
27, 199|
28, 57|
28, 76|
28, 95|
28, 113|
28, 113|
28, 161|
28, 166|
28, 175|
29, 73|
29, 85|
29, 143|
29, 146|
29, 152|
29, 153|
29, 156|
29, 158|
29, 167|
29, 171|
29, 191|
29, 192|
30, 38|
30, 66|
30, 81|
30, 125|
30, 134|
30, 141|
30, 151|
30, 197|
31, 68|
31, 72|
31, 100|
31, 123|
31, 134|
31, 146|
31, 193|
32, 66|
32, 71|
32, 103|
32, 115|
32, 144|
32, 147|
32, 159|
33, 84|
33, 112|
33, 122|
33, 144|
33, 146|
33, 194|
33, 195|
34, 39|
34, 63|
34, 100|
34, 125|
34, 128|
34, 133|
34, 133|
34, 135|
34, 163|
34, 180|
35, 44|
35, 93|
35, 132|
35, 142|
35, 147|
35, 154|
35, 190|
35, 193|
35, 195|
36, 46|
36, 59|
36, 74|
36, 76|
36, 98|
36, 152|
36, 169|
37, 38|
37, 82|
37, 104|
37, 128|
37, 186|
37, 191|
37, 199|
38, 96|
38, 108|
38, 120|
38, 126|
38, 139|
38, 142|
38, 147|
38, 165|
38, 180|
39, 42|
39, 71|
39, 86|
39, 99|
39, 107|
39, 121|
39, 136|
39, 146|
40, 63|
40, 64|
40, 78|
40, 82|
40, 89|
40, 196|
41, 65|
41, 111|
41, 120|
41, 142|
41, 173|
42, 91|
42, 140|
42, 169|
42, 194|
43, 63|
43, 98|
43, 100|
43, 108|
43, 119|
43, 122|
43, 162|
44, 54|
44, 107|
44, 119|
44, 125|
44, 141|
44, 142|
44, 166|
44, 176|
44, 184|
45, 64|
45, 93|
45, 140|
45, 147|
45, 155|
45, 164|
45, 173|
45, 192|
45, 193|
46, 79|
46, 168|
46, 176|
47, 90|
47, 96|
47, 110|
47, 113|
47, 128|
47, 173|
47, 183|
48, 104|
48, 112|
48, 124|
48, 136|
48, 182|
49, 73|
49, 94|
49, 97|
50, 104|
50, 121|
50, 152|
50, 160|
50, 160|
50, 175|
50, 194|
51, 64|
51, 118|
51, 121|
51, 145|
52, 72|
52, 98|
52, 119|
52, 157|
52, 172|
52, 196|
52, 199|
53, 97|
53, 114|
53, 125|
53, 127|
53, 134|
53, 149|
54, 66|
54, 85|
54, 123|
54, 144|
54, 149|
54, 155|
54, 157|
54, 174|
54, 185|
55, 60|
55, 88|
55, 118|
55, 187|
56, 77|
56, 86|
56, 97|
56, 99|
56, 108|
56, 167|
56, 172|
56, 174|
56, 179|
56, 194|
57, 129|
57, 138|
57, 141|
57, 155|
57, 157|
58, 70|
58, 90|
58, 107|
58, 119|
58, 146|
58, 146|
58, 162|
58, 163|
58, 179|
59, 67|
59, 68|
59, 68|
59, 138|
59, 149|
59, 149|
59, 164|
59, 166|
59, 171|
60, 62|
60, 66|
60, 80|
60, 101|
60, 148|
60, 148|
60, 154|
60, 180|
60, 188|
61, 62|
61, 65|
61, 73|
61, 77|
61, 115|
61, 124|
61, 154|
61, 166|
62, 69|
62, 75|
62, 84|
62, 103|
62, 112|
62, 131|
62, 144|
62, 156|
63, 64|
63, 130|
63, 132|
63, 132|
63, 140|
63, 153|
63, 159|
64, 72|
64, 81|
64, 123|
64, 133|
64, 158|
64, 163|
65, 71|
65, 73|
65, 105|
65, 167|
65, 178|
65, 181|
65, 186|
66, 126|
66, 129|
66, 129|
66, 168|
66, 171|
66, 176|
66, 188|
67, 81|
67, 88|
67, 109|
67, 126|
67, 159|
67, 190|
68, 120|
68, 132|
68, 141|
68, 161|
68, 161|
68, 168|
68, 192|
69, 94|
69, 98|
69, 129|
69, 129|
69, 153|
69, 188|
70, 104|
70, 140|
70, 143|
70, 180|
70, 185|
70, 190|
71, 74|
71, 103|
71, 106|
71, 125|
71, 144|
71, 162|
71, 188|
72, 74|
72, 91|
72, 129|
72, 149|
72, 177|
73, 78|
73, 93|
73, 99|
73, 133|
73, 137|
73, 179|
73, 184|
73, 196|
74, 156|
74, 177|
74, 191|
74, 196|
75, 84|
75, 102|
75, 148|
75, 162|
75, 177|
76, 80|
76, 110|
76, 117|
76, 126|
76, 157|
76, 172|
76, 173|
76, 180|
76, 194|
77, 113|
77, 114|
77, 129|
78, 89|
78, 128|
78, 150|
78, 195|
79, 94|
79, 114|
79, 115|
79, 122|
79, 128|
79, 154|
79, 175|
79, 181|
79, 183|
80, 92|
80, 99|
80, 103|
80, 110|
80, 117|
80, 120|
80, 124|
80, 133|
80, 170|
80, 183|
80, 197|
81, 87|
81, 102|
81, 117|
81, 121|
81, 132|
81, 185|
82, 90|
82, 116|
82, 120|
82, 164|
82, 169|
83, 90|
83, 137|
83, 198|
84, 128|
84, 137|
84, 145|
84, 156|
84, 188|
84, 196|
85, 97|
85, 108|
85, 153|
85, 157|
85, 164|
85, 165|
85, 175|
85, 187|
86, 98|
86, 161|
86, 187|
86, 196|
87, 117|
87, 152|
87, 171|
88, 92|
88, 125|
88, 126|
88, 127|
88, 138|
88, 147|
88, 159|
89, 128|
89, 147|
89, 170|
89, 177|
89, 185|
90, 109|
90, 114|
90, 130|
90, 141|
90, 171|
91, 107|
91, 124|
91, 144|
91, 165|
91, 173|
91, 177|
91, 199|
92, 100|
92, 100|
92, 101|
92, 125|
92, 139|
92, 178|
92, 186|
92, 189|
92, 194|
93, 104|
93, 108|
93, 123|
93, 155|
94, 129|
94, 137|
94, 164|
94, 189|
95, 120|
95, 133|
95, 140|
95, 155|
95, 164|
95, 196|
96, 175|
97, 116|
97, 123|
97, 130|
97, 183|
98, 165|
98, 193|
98, 194|
99, 105|
99, 110|
99, 116|
99, 162|
99, 170|
99, 190|
99, 197|
100, 116|
100, 134|
100, 144|
100, 162|
100, 167|
100, 193|
100, 193|
101, 116|
101, 125|
101, 153|
101, 160|
101, 198|
101, 199|
102, 122|
102, 194|
103, 112|
103, 113|
103, 116|
103, 142|
104, 120|
104, 136|
104, 177|
105, 116|
105, 128|
105, 178|
105, 196|
105, 196|
106, 122|
106, 132|
106, 138|
106, 143|
106, 157|
106, 162|
106, 169|
106, 192|
107, 114|
107, 131|
107, 155|
107, 156|
107, 181|
107, 198|
107, 199|
108, 134|
108, 172|
108, 181|
108, 198|
109, 163|
110, 137|
110, 142|
110, 173|
111, 115|
111, 142|
111, 157|
111, 165|
112, 116|
112, 120|
112, 138|
113, 156|
113, 199|
114, 152|
114, 158|
114, 162|
114, 171|
115, 123|
115, 124|
115, 143|
115, 144|
115, 171|
115, 195|
116, 117|
116, 125|
116, 143|
116, 163|
117, 162|
117, 175|
117, 181|
117, 193|
118, 129|
118, 188|
118, 190|
118, 193|
119, 130|
119, 183|
119, 190|
119, 191|
120, 166|
120, 166|
120, 167|
121, 122|
121, 136|
121, 143|
121, 149|
121, 154|
121, 165|
122, 130|
122, 131|
122, 134|
122, 146|
122, 147|
122, 161|
122, 162|
123, 145|
123, 162|
123, 178|
124, 148|
124, 156|
124, 193|
125, 127|
125, 146|
125, 150|
125, 152|
125, 169|
125, 178|
125, 181|
125, 189|
126, 140|
127, 139|
127, 177|
127, 186|
128, 143|
128, 179|
129, 138|
129, 143|
129, 160|
129, 166|
129, 174|
129, 195|
130, 138|
130, 147|
130, 148|
130, 155|
130, 166|
132, 138|
132, 140|
132, 147|
132, 164|
132, 191|
132, 194|
132, 195|
133, 147|
133, 174|
134, 157|
134, 185|
134, 188|
135, 159|
135, 159|
135, 171|
135, 191|
135, 199|
136, 165|
136, 188|
137, 141|
137, 163|
137, 176|
137, 178|
137, 187|
137, 193|
138, 161|
139, 140|
139, 170|
139, 172|
139, 198|
140, 143|
140, 158|
140, 171|
140, 195|
141, 160|
141, 167|
141, 177|
142, 172|
142, 177|
142, 193|
143, 145|
143, 152|
143, 175|
143, 177|
144, 159|
144, 193|
145, 184|
145, 186|
145, 193|
146, 170|
146, 176|
146, 180|
146, 180|
146, 182|
146, 192|
147, 161|
147, 199|
148, 168|
148, 178|
148, 180|
149, 162|
149, 168|
150, 172|
151, 158|
151, 161|
151, 176|
151, 177|
152, 161|
152, 166|
152, 176|
152, 198|
152, 198|
154, 166|
154, 191|
155, 174|
155, 176|
155, 187|
156, 170|
156, 198|
156, 199|
157, 163|
157, 173|
157, 190|
157, 190|
157, 194|
157, 194|
158, 174|
158, 182|
158, 184|
158, 189|
158, 191|
158, 196|
159, 166|
159, 192|
159, 196|
162, 163|
162, 179|
162, 197|
163, 165|
163, 182|
163, 183|
164, 182|
164, 183|
165, 189|
166, 168|
166, 183|
167, 175|
167, 197|
168, 193|
169, 186|
169, 186|
170, 196|
171, 187|
171, 192|
171, 199|
173, 175|
173, 177|
173, 195|
174, 187|
175, 182|
175, 185|
175, 193|
178, 182|
178, 182|
180, 192|
180, 197|
181, 194|
181, 199|
183, 190|
185, 192|
185, 193|
186, 198|
187, 196|
187, 199|
189, 196|]
